c case_ACTIVSg200 in MATPOWER https://matpower.org
p edge 200 245
e 1 2
e 1 3
e 1 4
e 1 5
e 1 6
e 1 9
e 6 7
e 7 8
e 8 23
e 8 26
e 9 10
e 10 11
e 10 13
e 11 12
e 11 13
e 11 14
e 11 26
e 11 42
e 11 48
e 13 15
e 13 16
e 13 17
e 13 18
e 13 22
e 18 19
e 19 20
e 20 21
e 21 30
e 21 34
e 21 36
e 22 24
e 22 28
e 22 30
e 22 31
e 23 24
e 24 25
e 24 30
e 24 32
e 26 27
e 26 133
e 26 134
e 27 28
e 28 29
e 30 31
e 30 32
e 30 33
e 31 38
e 31 39
e 32 34
e 32 35
e 33 34
e 34 36
e 34 40
e 35 36
e 36 37
e 39 41
e 40 42
e 40 49
e 40 51
e 41 43
e 43 44
e 44 45
e 45 46
e 45 47
e 45 72
e 45 73
e 48 58
e 48 61
e 48 64
e 48 66
e 49 50
e 50 52
e 51 54
e 52 53
e 53 56
e 54 55
e 55 57
e 56 65
e 56 66
e 56 69
e 57 59
e 57 60
e 57 61
e 58 59
e 59 60
e 60 81
e 61 62
e 61 63
e 61 64
e 64 65
e 64 66
e 64 70
e 64 71
e 66 67
e 66 68
e 66 70
e 69 75
e 70 75
e 70 79
e 71 72
e 71 78
e 73 74
e 74 76
e 75 77
e 76 85
e 77 100
e 77 101
e 78 101
e 78 105
e 79 80
e 79 101
e 79 102
e 81 82
e 81 83
e 81 84
e 84 126
e 84 127
e 85 86
e 85 87
e 85 88
e 85 89
e 85 90
e 85 91
e 91 92
e 91 93
e 93 94
e 93 95
e 95 96
e 95 97
e 97 98
e 97 99
e 98 99
e 99 114
e 99 137
e 100 102
e 100 103
e 101 107
e 102 120
e 102 121
e 103 104
e 104 106
e 105 106
e 105 108
e 106 114
e 106 120
e 106 136
e 107 187
e 107 189
e 108 109
e 108 110
e 108 111
e 108 112
e 108 113
e 108 114
e 108 115
e 108 116
e 108 117
e 117 118
e 118 119
e 119 120
e 121 122
e 121 123
e 121 124
e 121 125
e 125 126
e 126 128
e 127 129
e 127 130
e 128 130
e 128 131
e 128 132
e 130 133
e 133 138
e 134 135
e 135 140
e 136 139
e 137 143
e 138 148
e 139 158
e 140 141
e 141 142
e 142 145
e 143 144
e 143 179
e 143 181
e 145 146
e 145 147
e 145 167
e 145 178
e 148 149
e 148 150
e 148 151
e 148 152
e 148 153
e 153 154
e 154 155
e 155 156
e 155 157
e 157 166
e 157 169
e 158 159
e 158 160
e 158 161
e 158 162
e 158 163
e 158 164
e 158 165
e 158 175
e 158 176
e 158 177
e 166 167
e 167 168
e 169 170
e 170 171
e 170 172
e 172 173
e 173 174
e 173 175
e 175 176
e 177 179
e 177 181
e 177 182
e 178 196
e 178 197
e 179 180
e 179 182
e 181 185
e 181 186
e 181 187
e 182 183
e 182 184
e 187 188
e 189 190
e 189 191
e 189 192
e 189 193
e 189 194
e 189 195
e 189 197
e 195 196
e 196 197
e 196 198
e 197 200
e 198 199
e 199 200
l 140
t 86 156
